0 2014 
1 2010 
2 2000 
3 1986 
4 1976 
5 1972 
6 1952 
7 1946 
8 1930 
9 1922 
10 1914 
11 1906 
12 1890 
13 1888 
14 1882 
15 1874 
16 1872 
17 1866 
18 1862 
19 1858 
20 1854 
21 1852 
22 1836 
23 1834 
24 1822 
25 1820 
26 1806 
27 1800 
28 1796 
29 1796 
30 1796 
31 1792 
32 1792 
33 1790 
34 1784 
35 1772 
36 1770 
37 1762 
38 1750 
39 1746 
40 1744 
41 1738 
42 1730 
43 1726 
44 1724 
45 1704 
46 1702 
47 1702 
48 1702 
49 1702 
50 1700 
51 1698 
52 1694 
53 1694 
54 1694 
55 1694 
56 1690 
57 1690 
58 1686 
59 1682 
60 1682 

